(set-logic QF_S)
(declare-fun V13 () String )
(declare-fun V17 () String )
(declare-fun V6 () String )
(declare-fun V20 () String )
(declare-fun V25 () String )
(declare-fun V26 () String )
(declare-fun V27 () String )
(declare-fun V31 () String )
(declare-fun V11 () String )
(declare-fun V29 () String )
(declare-fun V24 () String )
(declare-fun V10 () String )
(declare-fun V15 () String )
(declare-fun V4 () String )
(declare-fun V30 () String )
(declare-fun V14 () String )
(declare-fun V16 () String )
(declare-fun V28 () String )
(declare-fun V22 () String )
(declare-fun V23 () String )
(declare-fun V3 () String )
(declare-fun V7 () String )
(declare-fun V18 () String )
(declare-fun V21 () String )
(declare-fun V19 () String )
(declare-fun V1 () String )
(assert (= (str.++ V3 V4 ) (str.++ (str.++ V25 V26 ) V20 ) ) )
(assert (= (str.++ V3 V4 ) (str.++ (str.++ V15 "/" ) V16 ) ) )
(assert (= (str.++ V3 V4 ) (str.++ (str.++ V21 "/" ) V22 ) ) )
(assert (= (str.++ V25 V26 ) (str.++ V6 V7 ) ) )
(assert (= (str.++ V25 V26 ) (str.++ V23 V24 ) ) )
(assert (= (str.++ V25 V26 ) (str.++ V18 V19 ) ) )
(assert (= (str.++ V25 V26 ) (str.++ (str.++ V13 "@" ) V14 ) ) )
(assert (= (str.++ V25 V26 ) (str.++ (str.++ V29 "Z" ) V30 ) ) )
(assert (= (str.++ V25 V26 ) (str.++ (str.++ V27 "Z" ) V28 ) ) )
(assert (= (str.++ V25 V26 ) (str.++ (str.++ (str.++ V10 "%" ) V11 ) V31 ) ) )
(assert (= (str.++ (str.++ V1 V3 ) V4 ) (str.++ "mongodb://" V17 ) ) )
( check-sat )
